benchmarks_vrp/CMT1/no_cluster/CMT1_4.vrp
NAME: CMT1_4
TYPE: CVRP
COMMENT: 524.61 - Cluster Nr.4
DIMENSION: 10
CAPACITY: 160
EDGE_WEIGHT_TYPE: EUC_2D
NODE_COORD_TYPE: TWOD_COORDS
NODE_COORD_SECTION: 
5 59 15
1 57 58
3 30 40
6 61 33
8 37 69
4 62 63
9 43 67
10 58 27
7 63 69
2 52 64
DEPOT_SECTION: 
3
-1
DEMAND_SECTION: 
3 0
8 11
9 14
7 6
2 16
6 26
4 17
1 28
5 14
10 19
EOF
