benchmarks_vrp/CMT1/no_cluster/CMT1_4.tour
NAME: CMT1_4 solution
TYPE: TOUR
TOUR_SECTION:
3 5 10 6 1 4 7 2 9 8 -1
-1
EOF